PARAMETER_FILE = even/even_uncomplete_graph_new/de/par/random72.par
PROBLEM_FILE = even/even_uncomplete_graph_new/de/mat/random72.tsp
Successes/Runs = 0/10
Cost.min = 665, Cost.avg = 665.00, Cost.max = 665
Gap.min = 0.0000%, Gap.avg = 0.0000%, Gap.max = 0.0000%
Trials.min = 1000, Trials.avg = 1000.0, Trials.max = 1000
Time.min = 0.12 sec., Time.avg = 0.13 sec., Time.max = 0.16 sec.
Time.total = 1.39 sec.
